NAME: Random_45_4
ELLAPSED_TIME_(ms): 0
TOUR_SIZE: 868.27167
TOUR_SECTION
0
28
23
34
4
15
5
1
38
14
25
7
37
6
13
31
30
26
18
21
29
27
3
41
24
16
39
40
9
36
35
12
19
43
42
10
32
11
17
22
44
33
8
20
2
0
EOF
